networks/zoo_96_1980/zoo_96_1980-lower.txt
Number of groups: 48
Flow 40: {1 41 0} {41 92 0} 
Flow 124: {3 37 0} {37 88 0} 
Flow 136: {4 3 0} {3 27 0} {27 41 0} {41 2 0} {2 8 0} {8 5 0} {5 56 0} 
Flow 181: {5 6 0} {6 57 0} 
Flow 227: {6 5 0} {5 8 0} {8 59 0} 
Flow 345: {8 38 0} {38 89 0} 
Flow 353: {9 43 0} {43 41 0} {41 1 0} {1 52 0} 
Flow 425: {10 19 0} {19 33 0} {33 32 0} {32 30 0} {30 81 0} 
Flow 428: {33 84 0} 
Flow 453: {11 34 0} {34 14 0} {14 65 0} 
Flow 460: {11 21 0} {21 72 0} 
Flow 491: {27 36 0} {36 42 0} {42 7 0} {7 58 0} 
Flow 500: {12 18 0} {18 17 0} {17 68 0} 
Flow 545: {13 17 0} {17 18 0} {18 69 0} 
Flow 600: {14 29 0} {29 80 0} 
Flow 629: {15 16 0} {16 17 0} {17 13 0} {13 64 0} 
Flow 675: {16 15 0} {15 66 0} 
Flow 678: {17 22 0} {22 21 0} {21 35 0} {35 30 0} {30 32 0} {32 33 0} {33 19 0} {19 70 0} 
Flow 760: {18 12 0} {12 63 0} 
Flow 802: {19 10 0} {10 61 0} 
Flow 820: {35 21 0} {21 29 0} 
Flow 913: {21 34 0} {34 85 0} 
Flow 991: {23 24 0} {24 75 0} 
Flow 1038: {24 23 0} {23 26 0} {26 25 0} {25 28 0} {28 34 0} {34 21 0} {21 27 0} {27 78 0} 
Flow 1081: {25 26 0} {26 77 0} 
Flow 1123: {26 23 0} {23 74 0} 
Flow 1243: {29 21 0} {21 11 0} 
Flow 1257: {29 14 0} {14 34 0} {34 28 0} {28 25 0} {25 76 0} 
Flow 1304: {28 79 0} 
Flow 1306: {30 31 0} 
Flow 1336: {22 17 0} {17 16 0} {16 67 0} 
Flow 1351: {31 32 0} {32 83 0} 
Flow 1354: {31 30 0} {30 35 0} {35 86 0} 
Flow 1395: {32 31 0} {31 82 0} 
Flow 1463: {34 11 0} {11 62 0} 
Flow 1560: {7 20 0} {20 71 0} 
Flow 1584: {36 45 0} {45 96 0} 
Flow 1587: {37 3 0} {3 54 0} 
Flow 1666: {38 39 0} {39 90 0} 
Flow 1715: {39 38 0} {38 8 0} {8 2 0} {2 41 0} {41 27 0} {27 45 0} {45 44 0} {44 95 0} 
Flow 1718: {40 20 0} {20 2 0} {2 53 0} 
Flow 1725: {20 7 0} {7 9 0} {9 60 0} 
Flow 1802: {41 43 0} {43 94 0} 
Flow 1808: {42 36 0} {36 27 0} {27 3 0} {3 4 0} {4 55 0} 
Flow 1890: {43 9 0} {9 7 0} {7 42 0} {42 93 0} 
Flow 1914: {44 45 0} {45 27 0} {27 21 0} {21 22 0} {22 73 0} 
Flow 1972: {45 36 0} {36 87 0} 
Flow 1976: {2 20 0} {20 40 0} {40 91 0} 
Time taken running everything: 8 seconds
