networks/zoo_96_1980/zoo_96_1980-lower.sol
<?xml version = "1.0" encoding="UTF-8" standalone="yes"?>
<CPLEXSolution version="1.2">
 <header
   problemName="networks/zoo_96_1980/zoo_96_1980-lower.lp"
   solutionName="incumbent"
   solutionIndex="-1"
   objectiveValue="45"
   solutionTypeValue="3"
   solutionTypeString="primal"
   solutionStatusValue="101"
   solutionStatusString="integer optimal solution"
   solutionMethodString="mip"
   primalFeasible="1"
   dualFeasible="1"
   MIPNodes="0"
   MIPIterations="0"
   writeLevel="3"/>
 <quality
   epInt="1.0000000000000001e-05"
   epRHS="9.9999999999999995e-07"
   maxIntInfeas="0"
   maxPrimalInfeas="0"
   maxX="1"
   maxSlack="1"/>
 <variables>
  <variable name="Y(1,2)" index="1" value="1"/>
  <variable name="Y(2,3)" index="92" value="1"/>
  <variable name="Y(3,4)" index="183" value="1"/>
  <variable name="Y(4,5)" index="274" value="1"/>
  <variable name="Y(5,6)" index="365" value="1"/>
  <variable name="Y(6,7)" index="456" value="1"/>
  <variable name="Y(7,8)" index="547" value="1"/>
  <variable name="Y(8,9)" index="638" value="1"/>
  <variable name="Y(9,10)" index="729" value="1"/>
  <variable name="Y(10,11)" index="820" value="1"/>
  <variable name="Y(11,12)" index="911" value="1"/>
  <variable name="Y(12,13)" index="1002" value="1"/>
  <variable name="Y(13,14)" index="1093" value="1"/>
  <variable name="Y(14,15)" index="1184" value="1"/>
  <variable name="Y(15,16)" index="1275" value="1"/>
  <variable name="Y(16,17)" index="1366" value="1"/>
  <variable name="Y(17,18)" index="1457" value="1"/>
  <variable name="Y(18,19)" index="1548" value="1"/>
  <variable name="Y(19,20)" index="1639" value="1"/>
  <variable name="Y(20,21)" index="1730" value="1"/>
  <variable name="Y(21,22)" index="1821" value="1"/>
  <variable name="Y(22,23)" index="1912" value="1"/>
  <variable name="Y(23,24)" index="2003" value="1"/>
  <variable name="Y(24,25)" index="2094" value="1"/>
  <variable name="Y(25,26)" index="2185" value="1"/>
  <variable name="Y(26,27)" index="2276" value="1"/>
  <variable name="Y(27,28)" index="2367" value="1"/>
  <variable name="Y(28,29)" index="2458" value="1"/>
  <variable name="Y(29,30)" index="2549" value="1"/>
  <variable name="Y(30,31)" index="2640" value="1"/>
  <variable name="Y(31,32)" index="2731" value="1"/>
  <variable name="Y(32,33)" index="2822" value="1"/>
  <variable name="Y(33,34)" index="2913" value="1"/>
  <variable name="Y(34,35)" index="3004" value="1"/>
  <variable name="Y(35,36)" index="3095" value="1"/>
  <variable name="Y(36,37)" index="3186" value="1"/>
  <variable name="Y(37,38)" index="3277" value="1"/>
  <variable name="Y(38,39)" index="3368" value="1"/>
  <variable name="Y(39,40)" index="3459" value="1"/>
  <variable name="Y(40,41)" index="3550" value="1"/>
  <variable name="Y(41,42)" index="3641" value="1"/>
  <variable name="Y(42,43)" index="3732" value="1"/>
  <variable name="Y(43,44)" index="3823" value="1"/>
  <variable name="Y(44,45)" index="3914" value="1"/>
  <variable name="Y(45,1)" index="3960" value="1"/>
  <variable name="X(1,41,1)" index="178200" value="1"/>
  <variable name="X(1,52,45)" index="180224" value="1"/>
  <variable name="X(2,8,4)" index="182163" value="1"/>
  <variable name="X(2,20,6)" index="184145" value="1"/>
  <variable name="X(2,41,45)" index="186164" value="1"/>
  <variable name="X(2,53,1)" index="188100" value="1"/>
  <variable name="X(3,4,3)" index="190082" value="1"/>
  <variable name="X(3,27,89)" index="192148" value="1"/>
  <variable name="X(3,37,36)" index="194075" value="1"/>
  <variable name="X(3,54,2)" index="196021" value="1"/>
  <variable name="X(4,3,133)" index="198132" value="1"/>
  <variable name="X(4,55,3)" index="199982" value="1"/>
  <variable name="X(5,6,5)" index="201964" value="1"/>
  <variable name="X(5,8,177)" index="204116" value="1"/>
  <variable name="X(5,56,4)" index="205923" value="1"/>
  <variable name="X(6,5,221)" index="208120" value="1"/>
  <variable name="X(6,57,5)" index="209884" value="1"/>
  <variable name="X(7,9,265)" index="212124" value="1"/>
  <variable name="X(7,20,266)" index="214105" value="1"/>
  <variable name="X(7,42,85)" index="215904" value="1"/>
  <variable name="X(7,58,6)" index="217805" value="1"/>
  <variable name="X(8,2,177)" index="219956" value="1"/>
  <variable name="X(8,5,4)" index="221763" value="1"/>
  <variable name="X(8,38,37)" index="223776" value="1"/>
  <variable name="X(8,59,7)" index="225726" value="1"/>
  <variable name="X(9,7,354)" index="228053" value="1"/>
  <variable name="X(9,43,265)" index="229944" value="1"/>
  <variable name="X(9,60,8)" index="231667" value="1"/>
  <variable name="X(10,19,397)" index="234036" value="1"/>
  <variable name="X(10,61,9)" index="235628" value="1"/>
  <variable name="X(11,21,441)" index="238040" value="1"/>
  <variable name="X(11,34,453)" index="240032" value="1"/>
  <variable name="X(11,62,10)" index="241569" value="1"/>
  <variable name="X(12,18,485)" index="244024" value="1"/>
  <variable name="X(12,63,11)" index="245530" value="1"/>
  <variable name="X(13,17,529)" index="248028" value="1"/>
  <variable name="X(13,64,12)" index="249491" value="1"/>
  <variable name="X(14,29,600)" index="252059" value="1"/>
  <variable name="X(14,34,573)" index="254012" value="1"/>
  <variable name="X(14,65,13)" index="255432" value="1"/>
  <variable name="X(15,16,617)" index="258016" value="1"/>
  <variable name="X(15,66,14)" index="259393" value="1"/>
  <variable name="X(16,15,14)" index="261373" value="1"/>
  <variable name="X(16,17,617)" index="263956" value="1"/>
  <variable name="X(16,67,15)" index="265334" value="1"/>
  <variable name="X(17,13,12)" index="267311" value="1"/>
  <variable name="X(17,16,14)" index="269293" value="1"/>
  <variable name="X(17,18,11)" index="271270" value="1"/>
  <variable name="X(17,22,485)" index="273724" value="1"/>
  <variable name="X(17,68,16)" index="275235" value="1"/>
  <variable name="X(18,12,11)" index="277210" value="1"/>
  <variable name="X(18,17,485)" index="279664" value="1"/>
  <variable name="X(18,69,17)" index="281176" value="1"/>
  <variable name="X(19,10,9)" index="283148" value="1"/>
  <variable name="X(19,33,397)" index="285516" value="1"/>
  <variable name="X(19,70,18)" index="287117" value="1"/>
  <variable name="X(20,2,266)" index="289345" value="1"/>
  <variable name="X(20,7,6)" index="291065" value="1"/>
  <variable name="X(20,40,39)" index="293078" value="1"/>
  <variable name="X(20,71,19)" index="295038" value="1"/>
  <variable name="X(21,11,10)" index="297009" value="1"/>
  <variable name="X(21,22,11)" index="298990" value="1"/>
  <variable name="X(21,27,398)" index="301357" value="1"/>
  <variable name="X(21,29,28)" index="302967" value="1"/>
  <variable name="X(21,34,13)" index="304932" value="1"/>
  <variable name="X(21,35,9)" index="306908" value="1"/>
  <variable name="X(21,72,20)" index="308899" value="1"/>
  <variable name="X(22,17,11)" index="310870" value="1"/>
  <variable name="X(22,21,485)" index="313324" value="1"/>
  <variable name="X(22,73,21)" index="314840" value="1"/>
  <variable name="X(23,24,23)" index="316822" value="1"/>
  <variable name="X(23,26,969)" index="319748" value="1"/>
  <variable name="X(23,74,22)" index="320781" value="1"/>
  <variable name="X(24,23,1013)" index="323752" value="1"/>
  <variable name="X(24,75,23)" index="324742" value="1"/>
  <variable name="X(25,26,22)" index="326721" value="1"/>
  <variable name="X(25,28,969)" index="329648" value="1"/>
  <variable name="X(25,76,24)" index="330683" value="1"/>
  <variable name="X(26,23,22)" index="332661" value="1"/>
  <variable name="X(26,25,969)" index="335588" value="1"/>
  <variable name="X(26,77,25)" index="336624" value="1"/>
  <variable name="X(27,3,2)" index="338581" value="1"/>
  <variable name="X(27,21,10)" index="340569" value="1"/>
  <variable name="X(27,36,35)" index="342574" value="1"/>
  <variable name="X(27,41,89)" index="344608" value="1"/>
  <variable name="X(27,45,43)" index="346542" value="1"/>
  <variable name="X(27,78,26)" index="348505" value="1"/>
  <variable name="X(28,25,22)" index="350481" value="1"/>
  <variable name="X(28,34,969)" index="353408" value="1"/>
  <variable name="X(28,79,27)" index="354446" value="1"/>
  <variable name="X(29,14,1246)" index="357645" value="1"/>
  <variable name="X(29,21,1233)" index="359612" value="1"/>
  <variable name="X(29,80,28)" index="360387" value="1"/>
  <variable name="X(30,31,30)" index="362369" value="1"/>
  <variable name="X(30,32,9)" index="364328" value="1"/>
  <variable name="X(30,35,397)" index="366696" value="1"/>
  <variable name="X(30,81,29)" index="368308" value="1"/>
  <variable name="X(31,30,1321)" index="371580" value="1"/>
  <variable name="X(31,32,1330)" index="373569" value="1"/>
  <variable name="X(31,82,30)" index="374249" value="1"/>
  <variable name="X(32,30,397)" index="376596" value="1"/>
  <variable name="X(32,31,426)" index="378605" value="1"/>
  <variable name="X(32,33,9)" index="380168" value="1"/>
  <variable name="X(32,83,31)" index="382170" value="1"/>
  <variable name="X(33,19,9)" index="384128" value="1"/>
  <variable name="X(33,32,397)" index="386496" value="1"/>
  <variable name="X(33,84,32)" index="388111" value="1"/>
  <variable name="X(34,11,583)" index="390642" value="1"/>
  <variable name="X(34,14,13)" index="392052" value="1"/>
  <variable name="X(34,21,573)" index="394592" value="1"/>
  <variable name="X(34,28,22)" index="396021" value="1"/>
  <variable name="X(34,85,33)" index="398012" value="1"/>
  <variable name="X(35,21,397)" index="400356" value="1"/>
  <variable name="X(35,30,9)" index="401948" value="1"/>
  <variable name="X(35,86,34)" index="403953" value="1"/>
  <variable name="X(36,27,267)" index="406166" value="1"/>
  <variable name="X(36,42,41)" index="407920" value="1"/>
  <variable name="X(36,45,307)" index="410166" value="1"/>
  <variable name="X(36,87,35)" index="411874" value="1"/>
  <variable name="X(37,3,1585)" index="415404" value="1"/>
  <variable name="X(37,88,36)" index="415835" value="1"/>
  <variable name="X(38,8,1629)" index="419408" value="1"/>
  <variable name="X(38,39,38)" index="419797" value="1"/>
  <variable name="X(38,89,37)" index="421776" value="1"/>
  <variable name="X(39,38,1673)" index="425392" value="1"/>
  <variable name="X(39,90,38)" index="425737" value="1"/>
  <variable name="X(40,20,1717)" index="429396" value="1"/>
  <variable name="X(40,91,39)" index="429698" value="1"/>
  <variable name="X(41,1,45)" index="431684" value="1"/>
  <variable name="X(41,2,1)" index="433620" value="1"/>
  <variable name="X(41,27,2)" index="435601" value="1"/>
  <variable name="X(41,43,8)" index="437587" value="1"/>
  <variable name="X(41,92,40)" index="439599" value="1"/>
  <variable name="X(42,7,94)" index="441633" value="1"/>
  <variable name="X(42,36,267)" index="443786" value="1"/>
  <variable name="X(42,93,41)" index="445540" value="1"/>
  <variable name="X(43,9,8)" index="447487" value="1"/>
  <variable name="X(43,41,265)" index="449724" value="1"/>
  <variable name="X(43,94,42)" index="451481" value="1"/>
  <variable name="X(44,45,1893)" index="455312" value="1"/>
  <variable name="X(44,95,43)" index="455442" value="1"/>
  <variable name="X(45,27,1893)" index="459272" value="1"/>
  <variable name="X(45,36,1899)" index="461258" value="1"/>
  <variable name="X(45,44,43)" index="461382" value="1"/>
  <variable name="X(45,96,44)" index="463363" value="1"/>
 </variables>
</CPLEXSolution>
